NAME: S051D6_25
COMMENT: 2310.32
VEHICLE: 41
TIME: 357.1757
DIMENSION: 51
CAPACITY: 160
DELIVERY_SECTION
0 0 0
1 1 40
2 1 40
3 1 16
4 1 16
5 1 1.6
6 1 1.6
7 1 1.6
8 1 1.2
9 2 40
10 2 40
11 2 16
12 2 16
13 2 1.6
14 2 1.6
15 2 1.6
16 2 1.2
17 3 40
18 3 40
19 3 16
20 3 16
21 3 1.6
22 3 0.4
23 4 40
24 4 40
25 4 40
26 4 16
27 4 1.6
28 4 1.6
29 4 1.6
30 4 1.6
31 4 0.6
32 5 40
33 5 40
34 5 16
35 5 16
36 5 1.6
37 5 1.6
38 5 0.8
39 6 40
40 6 40
41 6 40
42 6 8
43 6 1.6
44 6 0.4
45 7 40
46 7 40
47 7 16
48 7 16
49 7 1.6
50 7 0.4
51 8 40
52 8 40
53 8 40
54 8 16
55 8 1.6
56 8 1.6
57 8 0.8
58 9 40
59 9 40
60 9 16
61 9 16
62 9 1
63 10 40
64 10 40
65 10 40
66 10 16
67 10 1.6
68 10 0.4
69 11 40
70 11 40
71 11 16
72 11 16
73 11 1.6
74 11 1.4
75 12 40
76 12 40
77 12 40
78 12 8
79 12 1.6
80 12 1.4
81 13 40
82 13 40
83 13 16
84 13 16
85 13 1.6
86 13 0.4
87 14 40
88 14 40
89 14 40
90 14 16
91 14 1.6
92 14 1.6
93 14 1.6
94 14 1.2
95 15 40
96 15 40
97 15 16
98 15 16
99 15 1.6
100 15 1.6
101 15 0.8
102 16 40
103 16 40
104 16 16
105 16 16
106 16 1.6
107 16 1.6
108 16 1.6
109 16 1.2
110 17 40
111 17 40
112 17 16
113 17 16
114 17 1.6
115 17 1.6
116 17 1.6
117 17 1.6
118 17 0.6
119 18 40
120 18 40
121 18 40
122 18 16
123 18 1.6
124 18 1.6
125 18 1.6
126 18 1.6
127 18 0.6
128 19 40
129 19 40
130 19 16
131 19 16
132 19 1.6
133 19 1.6
134 19 1.6
135 19 1.2
136 20 40
137 20 40
138 20 16
139 20 16
140 20 1.6
141 20 1.6
142 20 1.6
143 20 1.6
144 20 0.6
145 21 40
146 21 40
147 21 40
148 21 1.6
149 21 1.6
150 21 1.6
151 21 0.2
152 22 40
153 22 40
154 22 40
155 22 16
156 22 1.6
157 22 1.6
158 22 1.6
159 22 1.2
160 23 40
161 23 40
162 23 40
163 24 40
164 24 40
165 24 40
166 24 8
167 24 1.6
168 24 1.4
169 25 40
170 25 40
171 25 40
172 25 8
173 25 1.6
174 25 1.4
175 26 40
176 26 40
177 26 40
178 26 16
179 26 1.6
180 26 1.4
181 27 40
182 27 40
183 27 40
184 27 1.6
185 27 0.4
186 28 40
187 28 40
188 28 40
189 28 16
190 28 1.6
191 28 1.4
192 29 40
193 29 40
194 29 40
195 29 16
196 29 1
197 30 40
198 30 40
199 30 40
200 30 8
201 30 1.6
202 30 1.6
203 30 1.6
204 30 1.6
205 30 0.6
206 31 40
207 31 40
208 31 40
209 31 1.6
210 31 1.6
211 31 1.6
212 31 0.2
213 32 40
214 32 40
215 32 40
216 32 16
217 32 1.6
218 32 1.6
219 32 1.6
220 32 1.6
221 32 0.6
222 33 40
223 33 40
224 33 40
225 33 16
226 33 1.6
227 33 1.6
228 33 1.6
229 33 1.2
230 34 40
231 34 40
232 34 40
233 34 8
234 34 1.6
235 34 1.4
236 35 40
237 35 40
238 35 40
239 35 8
240 35 1
241 36 40
242 36 40
243 36 40
244 36 16
245 36 1.6
246 36 1.6
247 36 1.6
248 36 1.6
249 36 0.6
250 37 40
251 37 40
252 37 40
253 37 16
254 37 1.6
255 37 1.6
256 37 1.6
257 37 1.6
258 37 0.6
259 38 40
260 38 40
261 38 40
262 38 1.6
263 38 1.6
264 38 1.6
265 38 1.6
266 38 0.6
267 39 40
268 39 40
269 39 40
270 39 8
271 39 1.6
272 39 1.6
273 39 1.6
274 39 0.2
275 40 40
276 40 40
277 40 40
278 40 16
279 40 1.6
280 40 1.4
281 41 40
282 41 40
283 41 40
284 41 16
285 41 1.6
286 41 1.6
287 41 1.6
288 41 1.2
289 42 40
290 42 40
291 42 40
292 42 1.6
293 42 1.4
294 43 40
295 43 40
296 43 40
297 43 16
298 43 1
299 44 40
300 44 40
301 44 40
302 44 8
303 44 1.6
304 44 1.6
305 44 1.6
306 44 1.2
307 45 40
308 45 40
309 45 40
310 45 16
311 46 40
312 46 40
313 46 40
314 46 1
315 47 40
316 47 40
317 47 40
318 47 16
319 47 1.6
320 47 1.6
321 47 0.8
322 48 40
323 48 40
324 48 40
325 48 8
326 49 40
327 49 40
328 49 40
329 49 1.6
330 49 1.6
331 49 1.6
332 49 0.2
333 50 40
334 50 40
335 50 16
336 50 16
337 50 1.6
338 50 1.6
339 50 1.6
340 50 1.2
PICKUP_SECTION
NODE_SECTION
30 40

37 52

49 49

52 64

20 26

40 30

21 47

17 63

31 62

52 33

51 21

42 41

31 32

 5 25

12 42

36 16

52 41

27 23

17 33

13 13

57 58

62 42

42 57

16 57
 
8 52

 7 38

27 68

30 48

43 67

58 48

58 27

37 69

38 46

46 10

61 33

62 63

63 69

32 22

45 35

59 15

 5  6

10 17

21 10

 5 64

30 15

39 10

32 39

25 32

25 55

48 28

56 37
DISTANCE_SECTION
DEPOT_SECTION
0
EOF